12 19

17 11 3 3 14 7 8 4 9 13
9 11 17 5 2 8 12 10 19 11 13 13
7 15 15 6 13 6 11 15 19 11
1 4 10 7 17 4 9 13 16 15
2 4 18 11 11 7 13 9
1 10 14 14 9 6 11 7
15 15 10 11 13 8 12 9 8 2 18 15
7 5 9 8 1 12 15 6 16 14 14 5
17 7 10 2 8 6 4 9
9 2 7 5 11 6 13 2 8 5 16 2
1 5 18 3 15 6 6 4 9 9 12 7
15 2 14 11 19 12 16 9
